16 10
12 2 11 14 7 0 3 1 8 13 10 9 6 15 4 5 
10 11 15 12 13 5 0 7 6 2 8 3 9 1 4 14 
0 3 11 6 8 13 2 1 7 15 12 14 9 10 4 5 
2 7 13 12 10 9 5 15 14 6 8 0 3 1 4 11 
10 0 3 4 8 1 11 12 7 13 2 6 9 5 14 15 
9 3 11 8 14 7 5 10 6 1 15 12 4 2 13 0 
14 10 5 13 8 6 3 12 0 1 9 2 15 11 4 7 
9 15 10 4 1 7 5 14 12 13 6 0 2 3 8 11 
1 11 2 9 7 13 8 10 0 4 12 14 3 15 6 5 
12 8 4 5 0 14 2 7 6 13 11 3 10 1 9 15 
